NAME: tsp-b-24
TYPE: TSP
COMMENT: min_cost = 2549.50
DIMENSION: 24
EDGE_WEIGHT_TYPE: EUC_2D
NODE_COORD_SECTION
1 150 411
2 7 319
3 9 471
4 90 434
5 261 359
6 118 505
7 353 310
8 371 334
9 555 520
10 470 538
11 519 341
12 545 443
13 232 258
14 91 31
15 65 123
16 235 247
17 2 147
18 120 63
19 322 97
20 559 93
21 437 202
22 392 279
23 565 72
24 431 86
EOF
